NAME : LRC1_6_8
TYPE : PDPTW
DIMENSION : 150
EDGE_WEIGHT_TYPE : EXACT_2D
NODE_COORD_SECTION
1 1 0
2 150 0
3 0 0
4 -20 822
5 0 2
6 44 248
7 3 199
8 600 10
9 61 84
10 10 0
11 103 20
12 0 48
13 10 49
14 423 7
15 597 723
16 8 230
17 433 10
18 55 68
19 10 0
20 180 -40
21 340 0
22 -20 276
23 0 12
24 203 326
25 13 257
26 242 10
27 57 155
28 10 0
29 26 -20
30 215 0
31 10 123
32 545 17
33 187 297
34 18 89
35 346 10
36 84 231
37 10 420
38 240 -20
39 56 0
40 20 138
41 561 22
42 131 175
43 23 180
44 81 10
45 240 73
46 10 0
47 265 20
48 0 467
49 20 56
50 344 27
51 140 337
52 28 160
53 163 10
54 289 130
55 10 0
56 255 -10
57 128 0
58 38 309
59 495 32
60 501 692
61 33 115
62 170 10
63 250 228
64 10 193
65 89 22
66 0 612
67 20 82
68 339 37
69 33 146
70 38 159
71 302 10
72 47 277
73 10 263
74 269 -18
75 371 0
76 30 184
77 609 42
78 136 293
79 43 74
80 875 10
81 140 140
82 10 0
83 241 -10
84 152 0
85 20 98
86 201 47
87 67 175
88 48 136
89 645 10
90 250 124
91 10 0
92 299 -40
93 187 0
94 10 157
95 578 52
96 118 234
97 53 212
98 281 10
99 259 59
100 10 0
101 104 21
102 0 505
103 20 134
104 20 57
105 575 714
106 58 57
107 288 10
108 232 121
109 10 0
110 132 10
111 0 170
112 24 328
113 92 62
114 95 231
115 63 143
116 163 10
117 248 41
118 10 70
119 263 -10
120 194 0
121 20 57
122 241 67
123 90 171
124 68 259
125 341 10
126 38 139
127 10 58
128 41 14
129 0 64
130 10 140
131 13 72
132 172 291
133 73 102
134 915 0
135 43 286
136 10 0
137 160 -2
138 309 0
139 13 95
140 611 77
141 175 261
142 78 88
143 704 0
144 122 127
145 10 0
146 63 -30
147 9 0
148 16 97
149 155 82
150 563 747
PICKUP_AND_DELIVERY_SECTION
1 0 0 0 0 0 0
2 0 0 0 0 1206 0
3 0 0 0 0 0 125
4 0 0 0 0 10 10
5 0 0 0 0 107 107
6 0 0 0 0 0 0
7 0 0 0 0 -5 -5
8 0 0 0 0 0 0
9 0 0 0 0 264 264
10 0 0 0 0 5 5
11 0 0 0 0 193 193
12 0 0 0 0 143 143
13 0 0 0 0 10 10
14 0 0 0 0 141 141
15 0 0 0 0 345 345
16 0 0 0 0 -10 -10
17 0 0 0 0 0 0
18 0 0 0 0 125 125
19 0 0 0 0 10 10
20 0 0 0 0 422 422
21 0 0 0 0 159 159
22 0 0 0 0 10 10
23 0 0 0 0 4 4
24 0 0 0 0 0 0
25 0 0 0 0 -10 -10
26 0 0 0 0 0 0
27 0 0 0 0 93 93
28 0 0 0 0 15 15
29 0 0 0 0 636 636
30 0 0 0 0 231 231
31 0 0 0 0 10 10
32 0 0 0 0 132 132
33 0 0 0 0 0 0
34 0 0 0 0 14 14
35 0 0 0 0 597 0
36 0 0 0 0 481 481
37 0 0 0 0 20 0
38 0 0 0 0 622 622
39 0 0 0 0 110 110
40 0 0 0 0 10 10
41 0 0 0 0 74 74
42 0 0 0 0 436 436
43 0 0 0 0 19 19
44 0 0 0 0 272 0
45 0 0 0 0 118 118
46 0 0 0 0 25 25
47 0 0 0 0 298 298
48 0 0 0 0 134 134
49 0 0 0 0 10 10
50 0 0 0 0 59 59
51 0 0 0 0 515 515
52 0 0 0 0 10 10
53 0 0 0 0 375 0
54 0 0 0 0 306 306
55 0 0 0 0 30 30
56 0 0 0 0 332 332
57 0 0 0 0 234 234
58 0 0 0 0 10 10
59 0 0 0 0 208 208
60 0 0 0 0 0 0
61 0 0 0 0 10 10
62 0 0 0 0 221 0
63 0 0 0 0 740 740
64 0 0 0 0 35 0
65 0 0 0 0 880 880
66 0 0 0 0 105 105
67 0 0 0 0 10 10
68 0 0 0 0 183 183
69 0 0 0 0 0 0
70 0 0 0 0 -20 -20
71 0 0 0 0 0 0
72 0 0 0 0 163 163
73 0 0 0 0 40 0
74 0 0 0 0 570 570
75 0 0 0 0 212 212
76 0 0 0 0 0 0
77 0 0 0 0 149 149
78 0 0 0 0 0 0
79 0 0 0 0 -14 -14
80 0 0 0 0 0 0
81 0 0 0 0 14 14
82 0 0 0 0 45 45
83 0 0 0 0 731 731
84 0 0 0 0 222 222
85 0 0 0 0 10 10
86 0 0 0 0 124 124
87 0 0 0 0 0 0
88 0 0 0 0 -20 -20
89 0 0 0 0 0 0
90 0 0 0 0 103 103
91 0 0 0 0 50 50
92 0 0 0 0 457 457
93 0 0 0 0 258 258
94 0 0 0 0 10 10
95 0 0 0 0 47 47
96 0 0 0 0 0 0
97 0 0 0 0 20 20
98 0 0 0 0 137 0
99 0 0 0 0 148 148
100 0 0 0 0 55 55
101 0 0 0 0 171 171
102 0 0 0 0 77 77
103 0 0 0 0 10 10
104 0 0 0 0 45 45
105 0 0 0 0 0 0
106 0 0 0 0 23 23
107 0 0 0 0 69 0
108 0 0 0 0 511 511
109 0 0 0 0 60 60
110 0 0 0 0 232 232
111 0 0 0 0 18 18
112 0 0 0 0 10 10
113 0 0 0 0 113 113
114 0 0 0 0 488 488
115 0 0 0 0 20 20
116 0 0 0 0 123 0
117 0 0 0 0 426 426
118 0 0 0 0 65 0
119 0 0 0 0 347 347
120 0 0 0 0 109 109
121 0 0 0 0 10 10
122 0 0 0 0 71 71
123 0 0 0 0 0 0
124 0 0 0 0 -40 -40
125 0 0 0 0 0 0
126 0 0 0 0 296 296
127 0 0 0 0 70 0
128 0 0 0 0 416 416
129 0 0 0 0 255 255
130 0 0 0 0 10 10
131 0 0 0 0 122 122
132 0 0 0 0 14 14
133 0 0 0 0 17 17
134 0 0 0 0 616 0
135 0 0 0 0 173 173
136 0 0 0 0 75 75
137 0 0 0 0 221 221
138 0 0 0 0 172 172
139 0 0 0 0 0 0
140 0 0 0 0 22 22
141 0 0 0 0 311 311
142 0 0 0 0 1 1
143 0 0 0 0 603 0
144 0 0 0 0 0 36
145 0 0 0 0 80 80
146 0 0 0 0 231 231
147 0 0 0 0 53 53
148 0 0 0 0 10 10
149 0 0 0 0 281 281
150 0 0 0 0 85 85
DEPOT_SECTION
1 
-1
EOF
